outputs/case_240.model.txt
is_other_subsidiary = True
dispose_subsidiary_shares = False
other_necessary_measures = False
is_bank = False
remove_manager_or_staff = False
revoke_statutory_resolution = False
name_change_completed = False
natural_person_and_spouse_and_minor_children_share_percentage = 0
reporting_reliability_and_compliance = False
shares_disposed_within_deadline = False
voting_shares_percentage = 30
proper_transaction_approval = False
suspend_subsidiary_business = False
capital_percentage = 30
is_bank_subsidiary = False
legal_and_regulatory_compliance = False
is_securities_firm = False
direct_or_indirect_board_majority = False
board_compliance_with_article4 = False
violation_occurred = True
moe_notification_done = False
operational_effectiveness_and_efficiency = False
company_dissolved_and_liquidated = False
fhc_or_subsidiary_share_percentage = 30
is_securities_subsidiary = False
is_insurance_subsidiary = False
is_insurance_company = False
remove_or_suspend_director_supervisor = True
established_under_fhc_law = True
gaap_compliance = False
correction_and_improvement_ordered = False
revoke_permit = False
has_violation = True
financial_holding_company = True
internal_control_objectives_met = False
penalty = False
subsidiary = True
external_financial_reporting_compliance = False
correction_ordered = False
penalty_measures_taken = True
notify_moe_on_removal = False
controlled_shareholding = True
financial_institution = False
dispose_shares_and_dissolve = True
major_shareholder = True